(set-logic QF_BV)
(declare-fun _substvar_177_ () (_ BitVec 64))
(declare-fun _substvar_224_ () (_ BitVec 64))
(declare-fun _substvar_195_ () (_ BitVec 64))
(assert (= _substvar_195_ (bvsub _substvar_177_ (_ bv0 64))))
(assert (= (_ bv0 64) (bvudiv _substvar_195_ _substvar_224_)))
(assert (= true (bvslt _substvar_177_ (_ bv0 64))))
(check-sat)
(exit)
